 num_bands       = 15
 num_wann        = 15

!!! Disentanglement parameters !!!
!dis_froz_min     = 7.
!dis_froz_max     = 9.
!dis_mix_ratio    = 0.5

!!! Iterations &c. !!!
 iprint                = 1
 num_iter              = 10000
 num_print_cycles      =   100
 conv_window           = 3
 conv_tol              = 1e-10
 dis_num_iter          = 10000
!dis_conv_window       = 3
!dis_conv_tol          = 1e-10
!restart               = default ! wannierise ! plot ! transport

!!! Post-processing options !!!
 write_proj             = .true.
 write_xyz              = .true.
 translate_home_cell    = .true. 
 write_hr               = .true.
!fermi_surface_plot     = .true.
!dos                    = .false.
!dos_project            =
!dos_kmesh              = 50 50 1
!dos_energy_min         = -1.8
!dos_energy_max         = +1.5

!!! Band structure !!!
!!! needs `kpoint_path' block
!bands_plot             = .true.
 bands_num_points       = 50
!bands_plot_format      = gnuplot xmgrace
!bands_plot_project     = 1-3
!bands_plot_mode        = s-k | cut [Slater-Koster | truncate Hamiltonian]
 
 
begin unit_cell_cart
Bohr
    2.260077   -3.914568   18.038066
    2.260077    3.914568   18.038066
   -4.520153    0.000000   18.038066
end unit_cell_cart
 
begin atoms_cart
Bohr
   1    0.00000000    0.00000000   21.56450790
   2    0.00000000    0.00000000   32.54969010
   3    0.00000000    0.00000000    0.00000000
   4    0.00000000    0.00000000   11.44515288
   5    0.00000000    0.00000000   42.66904512
end atoms_cart
 
!!! BZ-Path for band structure !!!
bands_plot = T
begin kpoint_path
  K   0.00000   0.00000   0.00000    K   0.50000   0.50000   0.50000
  K   0.50000   0.50000   0.50000    K   0.50000   0.00000   0.00000
  K   0.50000   0.00000   0.00000    K   0.00000  -0.50000  -0.50000
  K   0.00000  -0.50000  -0.50000    K   0.00000   0.00000   0.00000
end kpoint_path
 
!!!! Dummy `projections' block for guiding centres !!!
guiding_centres = T
begin projections
   1:s
   1:s
   1:s
   2:s
   2:s
   2:s
   3:s
   3:s
   3:s
   4:s
   4:s
   4:s
   5:s
   5:s
   5:s
end projections
 
!!! K-Points !!!
mp_grid : 6 6 6
begin kpoints
  0.000000000000000  0.000000000000000  0.000000000000000
  0.000000000000000  0.000000000000000  0.166666666666667
  0.000000000000000  0.000000000000000  0.333333333333333
  0.000000000000000  0.000000000000000  0.500000000000000
  0.000000000000000  0.000000000000000  0.666666666666667
  0.000000000000000  0.000000000000000  0.833333333333333
  0.000000000000000  0.166666666666667  0.000000000000000
  0.000000000000000  0.166666666666667  0.166666666666667
  0.000000000000000  0.166666666666667  0.333333333333333
  0.000000000000000  0.166666666666667  0.500000000000000
  0.000000000000000  0.166666666666667  0.666666666666667
  0.000000000000000  0.166666666666667  0.833333333333333
  0.000000000000000  0.333333333333333  0.000000000000000
  0.000000000000000  0.333333333333333  0.166666666666667
  0.000000000000000  0.333333333333333  0.333333333333333
  0.000000000000000  0.333333333333333  0.500000000000000
  0.000000000000000  0.333333333333333  0.666666666666667
  0.000000000000000  0.333333333333333  0.833333333333333
  0.000000000000000  0.500000000000000  0.000000000000000
  0.000000000000000  0.500000000000000  0.166666666666667
  0.000000000000000  0.500000000000000  0.333333333333333
  0.000000000000000  0.500000000000000  0.500000000000000
  0.000000000000000  0.500000000000000  0.666666666666667
  0.000000000000000  0.500000000000000  0.833333333333333
  0.000000000000000  0.666666666666667  0.000000000000000
  0.000000000000000  0.666666666666667  0.166666666666667
  0.000000000000000  0.666666666666667  0.333333333333333
  0.000000000000000  0.666666666666667  0.500000000000000
  0.000000000000000  0.666666666666667  0.666666666666667
  0.000000000000000  0.666666666666667  0.833333333333333
  0.000000000000000  0.833333333333333  0.000000000000000
  0.000000000000000  0.833333333333333  0.166666666666667
  0.000000000000000  0.833333333333333  0.333333333333333
  0.000000000000000  0.833333333333333  0.500000000000000
  0.000000000000000  0.833333333333333  0.666666666666667
  0.000000000000000  0.833333333333333  0.833333333333333
  0.166666666666667  0.000000000000000  0.000000000000000
  0.166666666666667  0.000000000000000  0.166666666666667
  0.166666666666667  0.000000000000000  0.333333333333333
  0.166666666666667  0.000000000000000  0.500000000000000
  0.166666666666667  0.000000000000000  0.666666666666667
  0.166666666666667  0.000000000000000  0.833333333333333
  0.166666666666667  0.166666666666667  0.000000000000000
  0.166666666666667  0.166666666666667  0.166666666666667
  0.166666666666667  0.166666666666667  0.333333333333333
  0.166666666666667  0.166666666666667  0.500000000000000
  0.166666666666667  0.166666666666667  0.666666666666667
  0.166666666666667  0.166666666666667  0.833333333333333
  0.166666666666667  0.333333333333333  0.000000000000000
  0.166666666666667  0.333333333333333  0.166666666666667
  0.166666666666667  0.333333333333333  0.333333333333333
  0.166666666666667  0.333333333333333  0.500000000000000
  0.166666666666667  0.333333333333333  0.666666666666667
  0.166666666666667  0.333333333333333  0.833333333333333
  0.166666666666667  0.500000000000000  0.000000000000000
  0.166666666666667  0.500000000000000  0.166666666666667
  0.166666666666667  0.500000000000000  0.333333333333333
  0.166666666666667  0.500000000000000  0.500000000000000
  0.166666666666667  0.500000000000000  0.666666666666667
  0.166666666666667  0.500000000000000  0.833333333333333
  0.166666666666667  0.666666666666667  0.000000000000000
  0.166666666666667  0.666666666666667  0.166666666666667
  0.166666666666667  0.666666666666667  0.333333333333333
  0.166666666666667  0.666666666666667  0.500000000000000
  0.166666666666667  0.666666666666667  0.666666666666667
  0.166666666666667  0.666666666666667  0.833333333333333
  0.166666666666667  0.833333333333333  0.000000000000000
  0.166666666666667  0.833333333333333  0.166666666666667
  0.166666666666667  0.833333333333333  0.333333333333333
  0.166666666666667  0.833333333333333  0.500000000000000
  0.166666666666667  0.833333333333333  0.666666666666667
  0.166666666666667  0.833333333333333  0.833333333333333
  0.333333333333333  0.000000000000000  0.000000000000000
  0.333333333333333  0.000000000000000  0.166666666666667
  0.333333333333333  0.000000000000000  0.333333333333333
  0.333333333333333  0.000000000000000  0.500000000000000
  0.333333333333333  0.000000000000000  0.666666666666667
  0.333333333333333  0.000000000000000  0.833333333333333
  0.333333333333333  0.166666666666667  0.000000000000000
  0.333333333333333  0.166666666666667  0.166666666666667
  0.333333333333333  0.166666666666667  0.333333333333333
  0.333333333333333  0.166666666666667  0.500000000000000
  0.333333333333333  0.166666666666667  0.666666666666667
  0.333333333333333  0.166666666666667  0.833333333333333
  0.333333333333333  0.333333333333333  0.000000000000000
  0.333333333333333  0.333333333333333  0.166666666666667
  0.333333333333333  0.333333333333333  0.333333333333333
  0.333333333333333  0.333333333333333  0.500000000000000
  0.333333333333333  0.333333333333333  0.666666666666667
  0.333333333333333  0.333333333333333  0.833333333333333
  0.333333333333333  0.500000000000000  0.000000000000000
  0.333333333333333  0.500000000000000  0.166666666666667
  0.333333333333333  0.500000000000000  0.333333333333333
  0.333333333333333  0.500000000000000  0.500000000000000
  0.333333333333333  0.500000000000000  0.666666666666667
  0.333333333333333  0.500000000000000  0.833333333333333
  0.333333333333333  0.666666666666667  0.000000000000000
  0.333333333333333  0.666666666666667  0.166666666666667
  0.333333333333333  0.666666666666667  0.333333333333333
  0.333333333333333  0.666666666666667  0.500000000000000
  0.333333333333333  0.666666666666667  0.666666666666667
  0.333333333333333  0.666666666666667  0.833333333333333
  0.333333333333333  0.833333333333333  0.000000000000000
  0.333333333333333  0.833333333333333  0.166666666666667
  0.333333333333333  0.833333333333333  0.333333333333333
  0.333333333333333  0.833333333333333  0.500000000000000
  0.333333333333333  0.833333333333333  0.666666666666667
  0.333333333333333  0.833333333333333  0.833333333333333
  0.500000000000000  0.000000000000000  0.000000000000000
  0.500000000000000  0.000000000000000  0.166666666666667
  0.500000000000000  0.000000000000000  0.333333333333333
  0.500000000000000  0.000000000000000  0.500000000000000
  0.500000000000000  0.000000000000000  0.666666666666667
  0.500000000000000  0.000000000000000  0.833333333333333
  0.500000000000000  0.166666666666667  0.000000000000000
  0.500000000000000  0.166666666666667  0.166666666666667
  0.500000000000000  0.166666666666667  0.333333333333333
  0.500000000000000  0.166666666666667  0.500000000000000
  0.500000000000000  0.166666666666667  0.666666666666667
  0.500000000000000  0.166666666666667  0.833333333333333
  0.500000000000000  0.333333333333333  0.000000000000000
  0.500000000000000  0.333333333333333  0.166666666666667
  0.500000000000000  0.333333333333333  0.333333333333333
  0.500000000000000  0.333333333333333  0.500000000000000
  0.500000000000000  0.333333333333333  0.666666666666667
  0.500000000000000  0.333333333333333  0.833333333333333
  0.500000000000000  0.500000000000000  0.000000000000000
  0.500000000000000  0.500000000000000  0.166666666666667
  0.500000000000000  0.500000000000000  0.333333333333333
  0.500000000000000  0.500000000000000  0.500000000000000
  0.500000000000000  0.500000000000000  0.666666666666667
  0.500000000000000  0.500000000000000  0.833333333333333
  0.500000000000000  0.666666666666667  0.000000000000000
  0.500000000000000  0.666666666666667  0.166666666666667
  0.500000000000000  0.666666666666667  0.333333333333333
  0.500000000000000  0.666666666666667  0.500000000000000
  0.500000000000000  0.666666666666667  0.666666666666667
  0.500000000000000  0.666666666666667  0.833333333333333
  0.500000000000000  0.833333333333333  0.000000000000000
  0.500000000000000  0.833333333333333  0.166666666666667
  0.500000000000000  0.833333333333333  0.333333333333333
  0.500000000000000  0.833333333333333  0.500000000000000
  0.500000000000000  0.833333333333333  0.666666666666667
  0.500000000000000  0.833333333333333  0.833333333333333
  0.666666666666667  0.000000000000000  0.000000000000000
  0.666666666666667  0.000000000000000  0.166666666666667
  0.666666666666667  0.000000000000000  0.333333333333333
  0.666666666666667  0.000000000000000  0.500000000000000
  0.666666666666667  0.000000000000000  0.666666666666667
  0.666666666666667  0.000000000000000  0.833333333333333
  0.666666666666667  0.166666666666667  0.000000000000000
  0.666666666666667  0.166666666666667  0.166666666666667
  0.666666666666667  0.166666666666667  0.333333333333333
  0.666666666666667  0.166666666666667  0.500000000000000
  0.666666666666667  0.166666666666667  0.666666666666667
  0.666666666666667  0.166666666666667  0.833333333333333
  0.666666666666667  0.333333333333333  0.000000000000000
  0.666666666666667  0.333333333333333  0.166666666666667
  0.666666666666667  0.333333333333333  0.333333333333333
  0.666666666666667  0.333333333333333  0.500000000000000
  0.666666666666667  0.333333333333333  0.666666666666667
  0.666666666666667  0.333333333333333  0.833333333333333
  0.666666666666667  0.500000000000000  0.000000000000000
  0.666666666666667  0.500000000000000  0.166666666666667
  0.666666666666667  0.500000000000000  0.333333333333333
  0.666666666666667  0.500000000000000  0.500000000000000
  0.666666666666667  0.500000000000000  0.666666666666667
  0.666666666666667  0.500000000000000  0.833333333333333
  0.666666666666667  0.666666666666667  0.000000000000000
  0.666666666666667  0.666666666666667  0.166666666666667
  0.666666666666667  0.666666666666667  0.333333333333333
  0.666666666666667  0.666666666666667  0.500000000000000
  0.666666666666667  0.666666666666667  0.666666666666667
  0.666666666666667  0.666666666666667  0.833333333333333
  0.666666666666667  0.833333333333333  0.000000000000000
  0.666666666666667  0.833333333333333  0.166666666666667
  0.666666666666667  0.833333333333333  0.333333333333333
  0.666666666666667  0.833333333333333  0.500000000000000
  0.666666666666667  0.833333333333333  0.666666666666667
  0.666666666666667  0.833333333333333  0.833333333333333
  0.833333333333333  0.000000000000000  0.000000000000000
  0.833333333333333  0.000000000000000  0.166666666666667
  0.833333333333333  0.000000000000000  0.333333333333333
  0.833333333333333  0.000000000000000  0.500000000000000
  0.833333333333333  0.000000000000000  0.666666666666667
  0.833333333333333  0.000000000000000  0.833333333333333
  0.833333333333333  0.166666666666667  0.000000000000000
  0.833333333333333  0.166666666666667  0.166666666666667
  0.833333333333333  0.166666666666667  0.333333333333333
  0.833333333333333  0.166666666666667  0.500000000000000
  0.833333333333333  0.166666666666667  0.666666666666667
  0.833333333333333  0.166666666666667  0.833333333333333
  0.833333333333333  0.333333333333333  0.000000000000000
  0.833333333333333  0.333333333333333  0.166666666666667
  0.833333333333333  0.333333333333333  0.333333333333333
  0.833333333333333  0.333333333333333  0.500000000000000
  0.833333333333333  0.333333333333333  0.666666666666667
  0.833333333333333  0.333333333333333  0.833333333333333
  0.833333333333333  0.500000000000000  0.000000000000000
  0.833333333333333  0.500000000000000  0.166666666666667
  0.833333333333333  0.500000000000000  0.333333333333333
  0.833333333333333  0.500000000000000  0.500000000000000
  0.833333333333333  0.500000000000000  0.666666666666667
  0.833333333333333  0.500000000000000  0.833333333333333
  0.833333333333333  0.666666666666667  0.000000000000000
  0.833333333333333  0.666666666666667  0.166666666666667
  0.833333333333333  0.666666666666667  0.333333333333333
  0.833333333333333  0.666666666666667  0.500000000000000
  0.833333333333333  0.666666666666667  0.666666666666667
  0.833333333333333  0.666666666666667  0.833333333333333
  0.833333333333333  0.833333333333333  0.000000000000000
  0.833333333333333  0.833333333333333  0.166666666666667
  0.833333333333333  0.833333333333333  0.333333333333333
  0.833333333333333  0.833333333333333  0.500000000000000
  0.833333333333333  0.833333333333333  0.666666666666667
  0.833333333333333  0.833333333333333  0.833333333333333
end kpoints
